
Gurobi 9.5.1 (linux64, gurobi_cl) logging started Tue Jan 31 14:45:27 2023

Set parameter Username
Set parameter TimeLimit to value 7200
Set parameter LogFile to value "./log/reopt_p2/problem2_37.log"
Set parameter Threads to value 1
Academic license - for non-commercial use only - expires 2023-07-13
Using license file /opt/gurobi951/linux64/gurobi.lic

Gurobi Optimizer version 9.5.1 build v9.5.1rc2 (linux64)
Copyright (c) 2022, Gurobi Optimization, LLC

Read MPS format model from file ./ins/reopt_p2/problem2_37.mps.mps.gz
Reading time = 1.05 seconds
problem_: 258835 rows, 607281 columns, 1251889 nonzeros
Thread count: 112 physical cores, 224 logical processors, using up to 1 threads
Optimize a model with 258835 rows, 607281 columns and 1251889 nonzeros
Model fingerprint: 0x90313664
Variable types: 0 continuous, 607281 integer (607281 binary)
Coefficient statistics:
  Matrix range     [6e-01, 9e+01]
  Objective range  [4e-01, 6e+01]
  Bounds range     [1e+00, 1e+00]
  RHS range        [1e+00, 1e+00]
Presolve removed 14804 rows and 26292 columns (presolve time = 5s) ...
Presolve removed 14804 rows and 26292 columns (presolve time = 83s) ...
Presolve removed 14804 rows and 26292 columns
Presolve time: 83.06s
Presolved: 244031 rows, 580989 columns, 1214047 nonzeros
Variable types: 0 continuous, 580989 integer (580989 binary)
Found heuristic solution: objective 168256.65800

Root simplex log...

Iteration    Objective       Primal Inf.    Dual Inf.      Time
       0    1.9342877e+04   1.329000e+03   0.000000e+00     87s
    3266    2.5996910e+04   0.000000e+00   0.000000e+00     87s

Use crossover to convert LP symmetric solution to basic solution...

Root crossover log...

       0 DPushes remaining with DInf 0.0000000e+00                87s

       0 PPushes remaining with PInf 0.0000000e+00                87s

  Push phase complete: Pinf 0.0000000e+00, Dinf 2.3968154e-11     87s


Root simplex log...

Iteration    Objective       Primal Inf.    Dual Inf.      Time
    3599    2.5996910e+04   0.000000e+00   0.000000e+00     87s
    3601    2.5996910e+04   0.000000e+00   0.000000e+00     88s
Extra simplex iterations after uncrush: 2

Root relaxation: objective 2.599691e+04, 3601 iterations, 2.09 seconds (1.22 work units)

    Nodes    |    Current Node    |     Objective Bounds      |     Work
 Expl Unexpl |  Obj  Depth IntInf | Incumbent    BestBd   Gap | It/Node Time

     0     0 25996.9100    0 6168 168256.658 25996.9100  84.5%     -  116s
H    0     0                    86291.110000 25996.9100  69.9%     -  116s
     0     0 28516.6295    0 6394 86291.1100 28516.6295  67.0%     -  146s
H    0     0                    84382.620000 28516.6295  66.2%     -  153s
     0     0 28529.1270    0 6410 84382.6200 28529.1270  66.2%     -  154s
     0     0 30706.0880    0 10072 84382.6200 30706.0880  63.6%     -  176s
     0     0 30766.0595    0 9459 84382.6200 30766.0595  63.5%     -  189s
     0     0 30768.2246    0 7535 84382.6200 30768.2246  63.5%     -  203s
     0     0 30768.2246    0 7537 84382.6200 30768.2246  63.5%     -  204s
     0     0 32191.7760    0 14804 84382.6200 32191.7760  61.9%     -  246s
H    0     0                    83875.780000 32191.7760  61.6%     -  252s
     0     0 32489.0101    0 15204 83875.7800 32489.0101  61.3%     -  279s
     0     0 32501.3828    0 10144 83875.7800 32501.3828  61.3%     -  295s
     0     0 32509.4526    0 12493 83875.7800 32509.4526  61.2%     -  307s
     0     0 32511.8836    0 12497 83875.7800 32511.8836  61.2%     -  312s
     0     0 32512.1285    0 12499 83875.7800 32512.1285  61.2%     -  314s
     0     0 33869.6412    0 36839 83875.7800 33869.6412  59.6%     -  667s
H    0     0                    83856.040000 33869.6412  59.6%     -  669s
     0     0 34517.9112    0 57929 83856.0400 34517.9112  58.8%     - 1032s
     0     0 34561.1250    0 26127 83856.0400 34561.1250  58.8%     - 1089s
     0     0 34620.6731    0 14914 83856.0400 34620.6731  58.7%     - 1146s
     0     0 34630.5554    0 13492 83856.0400 34630.5554  58.7%     - 1165s
     0     0 34631.3978    0 13505 83856.0400 34631.3978  58.7%     - 1167s
     0     0 35390.3610    0 73612 83856.0400 35390.3610  57.8%     - 1725s
H    0     0                    83838.258000 35390.3610  57.8%     - 1730s
     0     0 36265.2247    0 88261 83838.2580 36265.2247  56.7%     - 2677s
     0     0 36427.8990    0 85077 83838.2580 36427.8990  56.5%     - 2903s
     0     0 36482.0162    0 86979 83838.2580 36482.0162  56.5%     - 3037s
     0     0 36518.1914    0 87915 83838.2580 36518.1914  56.4%     - 3141s
     0     0 36536.8098    0 89086 83838.2580 36536.8098  56.4%     - 3223s
     0     0 36551.6098    0 89196 83838.2580 36551.6098  56.4%     - 3293s
     0     0 36560.3234    0 89391 83838.2580 36560.3234  56.4%     - 3360s
     0     0 36567.2375    0 90475 83838.2580 36567.2375  56.4%     - 3425s
     0     0 36574.3020    0 90982 83838.2580 36574.3020  56.4%     - 3485s
     0     0 36578.2605    0 91686 83838.2580 36578.2605  56.4%     - 3528s
     0     0 36581.7890    0 91377 83838.2580 36581.7890  56.4%     - 3554s
     0     0 36583.6268    0 91849 83838.2580 36583.6268  56.4%     - 3576s
     0     0 37437.5837    0 116829 83838.2580 37437.5837  55.3%     - 4748s
H    0     0                    83745.924000 37437.5837  55.3%     - 4751s
     0     0 38360.4358    0 153378 83745.9240 38360.4358  54.2%     - 6555s
     0     0          -    0      83745.9240 38360.4358  54.2%     - 7200s

Cutting planes:
  Gomory: 65
  Cover: 22429
  Clique: 9004
  MIR: 4895
  StrongCG: 435

Explored 1 nodes (965895 simplex iterations) in 7200.05 seconds (6539.62 work units)
Thread count was 1 (of 224 available processors)

Solution count 7: 83745.9 83838.3 83856 ... 168257

Time limit reached
Best objective 8.374592400000e+04, best bound 3.836043578534e+04, gap 54.1943%

Gurobi 10.0.2 (linux64) logging started Tue Sep  5 17:37:59 2023

Set parameter LogFile to value "../reopt_p2/problem2_37.log"
Set parameter TimeLimit to value 600
Gurobi Optimizer version 10.0.2 build v10.0.2rc0 (linux64)

CPU model: Intel(R) Xeon(R) Platinum 8280 CPU @ 2.70GHz, instruction set [SSE2|AVX|AVX2|AVX512]
Thread count: 112 physical cores, 112 logical processors, using up to 32 threads

Optimize a model with 258835 rows, 607281 columns and 1251889 nonzeros
Model fingerprint: 0x90313664
Variable types: 0 continuous, 607281 integer (607281 binary)
Coefficient statistics:
  Matrix range     [6e-01, 9e+01]
  Objective range  [4e-01, 6e+01]
  Bounds range     [1e+00, 1e+00]
  RHS range        [1e+00, 1e+00]
Presolve removed 14804 rows and 26292 columns (presolve time = 5s) ...
Presolve removed 14804 rows and 26292 columns (presolve time = 207s) ...
Presolve removed 14804 rows and 26292 columns
Presolve time: 207.88s
Presolved: 244031 rows, 580989 columns, 1214047 nonzeros
Variable types: 0 continuous, 580989 integer (580989 binary)
Found heuristic solution: objective 168256.65800
Deterministic concurrent LP optimizer: primal simplex, dual simplex, and barrier
Showing barrier log only...

Root barrier log...

Ordering time: 0.06s

Barrier statistics:
 Dense cols : 91
 AA' NZ     : 4.537e+05
 Factor NZ  : 8.417e+05 (roughly 23 MB of memory)
 Factor Ops : 8.005e+07 (less than 1 second per iteration)
 Threads    : 30

                  Objective                Residual
Iter       Primal          Dual         Primal    Dual     Compl     Time
   0   1.87314394e+06 -1.09693260e+07  5.70e+01 2.84e+01  1.21e+03   213s
   1   6.56507673e+05 -7.11712173e+06  1.87e+01 3.08e-13  4.14e+02   213s
   2   2.97353055e+05 -3.45806924e+06  7.57e+00 4.33e-13  1.50e+02   213s

Barrier performed 2 iterations in 213.40 seconds (60.02 work units)
Barrier solve interrupted - model solved by another algorithm

Concurrent spin time: 0.06s

Solved with dual simplex

Use crossover to convert LP symmetric solution to basic solution...

Root crossover log...

       0 DPushes remaining with DInf 0.0000000e+00               213s

       0 PPushes remaining with PInf 0.0000000e+00               213s

  Push phase complete: Pinf 0.0000000e+00, Dinf 2.3968154e-11    213s


Root simplex log...

Iteration    Objective       Primal Inf.    Dual Inf.      Time
    3599    2.5996910e+04   0.000000e+00   0.000000e+00    213s
    3601    2.5996910e+04   0.000000e+00   0.000000e+00    214s
Extra simplex iterations after uncrush: 2

Root relaxation: objective 2.599691e+04, 3601 iterations, 2.66 seconds (1.22 work units)
Total elapsed time = 216.02s

    Nodes    |    Current Node    |     Objective Bounds      |     Work
 Expl Unexpl |  Obj  Depth IntInf | Incumbent    BestBd   Gap | It/Node Time

     0     0 25996.9100    0 6168 168256.658 25996.9100  84.5%     -  247s
H    0     0                    86291.110000 25996.9100  69.9%     -  247s
     0     0 28516.6295    0 6394 86291.1100 28516.6295  67.0%     -  285s
H    0     0                    84382.620000 28516.6295  66.2%     -  293s
     0     0 28529.1270    0 6410 84382.6200 28529.1270  66.2%     -  294s
     0     0 30706.0880    0 10072 84382.6200 30706.0880  63.6%     -  330s
     0     0 30766.0595    0 9459 84382.6200 30766.0595  63.5%     -  348s
     0     0 30768.2246    0 7535 84382.6200 30768.2246  63.5%     -  367s
     0     0 30768.2246    0 7537 84382.6200 30768.2246  63.5%     -  368s
     0     0 32191.7760    0 14802 84382.6200 32191.7760  61.9%     -  440s
H    0     0                    83856.040000 32191.7760  61.6%     -  444s
     0     0 32489.0101    0 15208 83856.0400 32489.0101  61.3%     -  497s
     0     0 32501.3828    0 10142 83856.0400 32501.3828  61.2%     -  515s
     0     0 32509.4526    0 12493 83856.0400 32509.4526  61.2%     -  530s
     0     0 32511.8836    0 12495 83856.0400 32511.8836  61.2%     -  539s
     0     0 32512.1285    0 12497 83856.0400 32512.1285  61.2%     -  541s
     0     0          -    0      83856.0400 32512.1285  61.2%     -  600s

Cutting planes:
  Gomory: 175
  Cover: 15549
  Clique: 3086
  MIR: 3716
  StrongCG: 1045

Explored 1 nodes (67639 simplex iterations) in 600.08 seconds (198.08 work units)
Thread count was 32 (of 112 available processors)

Solution count 4: 83856 84382.6 86291.1 168257 

Time limit reached
Best objective 8.385604000000e+04, best bound 3.251212847784e+04, gap 61.2286%

Gurobi 10.0.2 (linux64) logging started Wed Sep  6 14:59:33 2023

Set parameter LogFile to value "../reopt_p2/problem2_37.log"
Set parameter TimeLimit to value 600
Set parameter Threads to value 30
Gurobi Optimizer version 10.0.2 build v10.0.2rc0 (linux64)

CPU model: Intel(R) Xeon(R) Platinum 8280 CPU @ 2.70GHz, instruction set [SSE2|AVX|AVX2|AVX512]
Thread count: 112 physical cores, 112 logical processors, using up to 30 threads

Optimize a model with 258835 rows, 607281 columns and 1251889 nonzeros
Model fingerprint: 0x90313664
Variable types: 0 continuous, 607281 integer (607281 binary)
Coefficient statistics:
  Matrix range     [6e-01, 9e+01]
  Objective range  [4e-01, 6e+01]
  Bounds range     [1e+00, 1e+00]
  RHS range        [1e+00, 1e+00]
Presolve removed 14804 rows and 26292 columns (presolve time = 5s) ...
Presolve removed 14804 rows and 26292 columns (presolve time = 73s) ...
Presolve removed 14804 rows and 26292 columns
Presolve time: 73.15s
Presolved: 244031 rows, 580989 columns, 1214047 nonzeros
Variable types: 0 continuous, 580989 integer (580989 binary)
Found heuristic solution: objective 168256.65800
Deterministic concurrent LP optimizer: primal simplex, dual simplex, and barrier
Showing barrier log only...

Root barrier log...

Ordering time: 0.04s

Barrier statistics:
 Dense cols : 91
 AA' NZ     : 4.537e+05
 Factor NZ  : 8.417e+05 (roughly 23 MB of memory)
 Factor Ops : 8.005e+07 (less than 1 second per iteration)
 Threads    : 28

                  Objective                Residual
Iter       Primal          Dual         Primal    Dual     Compl     Time
   0   1.87314394e+06 -1.09693260e+07  5.70e+01 2.84e+01  1.21e+03    77s
   1   6.56507673e+05 -7.11712173e+06  1.87e+01 3.06e-13  4.14e+02    77s
   2   2.97353055e+05 -3.45806924e+06  7.57e+00 9.92e-13  1.50e+02    77s

Barrier performed 2 iterations in 76.64 seconds (60.02 work units)
Barrier solve interrupted - model solved by another algorithm

Concurrent spin time: 0.04s

Solved with dual simplex

Use crossover to convert LP symmetric solution to basic solution...

Root crossover log...

       0 DPushes remaining with DInf 0.0000000e+00                77s

       0 PPushes remaining with PInf 0.0000000e+00                77s

  Push phase complete: Pinf 0.0000000e+00, Dinf 2.3968154e-11     77s


Root simplex log...

Iteration    Objective       Primal Inf.    Dual Inf.      Time
    3599    2.5996910e+04   0.000000e+00   0.000000e+00     77s
    3601    2.5996910e+04   0.000000e+00   0.000000e+00     77s
Extra simplex iterations after uncrush: 2

Root relaxation: objective 2.599691e+04, 3601 iterations, 1.63 seconds (1.22 work units)

    Nodes    |    Current Node    |     Objective Bounds      |     Work
 Expl Unexpl |  Obj  Depth IntInf | Incumbent    BestBd   Gap | It/Node Time

     0     0 25996.9100    0 6168 168256.658 25996.9100  84.5%     -   86s
H    0     0                    86291.110000 25996.9100  69.9%     -   86s
     0     0 28516.6295    0 6394 86291.1100 28516.6295  67.0%     -  100s
H    0     0                    84382.620000 28516.6295  66.2%     -  106s
     0     0 28529.1270    0 6410 84382.6200 28529.1270  66.2%     -  106s
     0     0 30706.0880    0 10072 84382.6200 30706.0880  63.6%     -  122s
     0     0 30766.0595    0 9459 84382.6200 30766.0595  63.5%     -  129s
     0     0 30768.2246    0 7535 84382.6200 30768.2246  63.5%     -  134s
     0     0 30768.2246    0 7537 84382.6200 30768.2246  63.5%     -  135s
     0     0 32191.7760    0 14802 84382.6200 32191.7760  61.9%     -  165s
H    0     0                    83856.040000 32191.7760  61.6%     -  167s
     0     0 32489.0101    0 15208 83856.0400 32489.0101  61.3%     -  186s
     0     0 32501.3828    0 10142 83856.0400 32501.3828  61.2%     -  192s
     0     0 32509.4526    0 12493 83856.0400 32509.4526  61.2%     -  197s
     0     0 32511.8836    0 12495 83856.0400 32511.8836  61.2%     -  201s
     0     0 32512.1285    0 12497 83856.0400 32512.1285  61.2%     -  201s
     0     0 33869.8523    0 36850 83856.0400 33869.8523  59.6%     -  417s
     0     0          -    0      83856.0400 33869.8523  59.6%     -  600s

Cutting planes:
  Gomory: 189
  Cover: 12208
  Clique: 2607
  MIR: 3117
  StrongCG: 656

Explored 1 nodes (191116 simplex iterations) in 600.07 seconds (903.30 work units)
Thread count was 30 (of 112 available processors)

Solution count 4: 83856 84382.6 86291.1 168257 

Time limit reached
Best objective 8.385604000000e+04, best bound 3.386985233756e+04, gap 59.6095%
